
<<< setup


<<< generate

Version identifier: 22.1.1.0 | 2022-11-28 | 9160aff4d
CPXPARAM_TimeLimit                               1800
Found incumbent of value 0.000000 after 0.01 sec. (18.51 ticks)
Tried aggregator 1 time.
MIP Presolve eliminated 989 rows and 0 columns.
Reduced MIP has 608855 rows, 488566 columns, and 2191878 nonzeros.
Reduced MIP has 487578 binaries, 988 generals, 0 SOSs, and 0 indicators.
Presolve time = 0.56 sec. (995.62 ticks)
Probing time = 0.28 sec. (136.83 ticks)
Tried aggregator 1 time.
Detecting symmetries...
Elapsed time for symmetry detection = 16.22 sec. (10003.35 ticks)
Elapsed time for symmetry detection = 32.59 sec. (20005.38 ticks)
Elapsed time for symmetry detection = 47.86 sec. (30006.59 ticks)
Elapsed time for symmetry detection = 62.21 sec. (40008.25 ticks)
Elapsed time for symmetry detection = 75.83 sec. (50012.65 ticks)
Found 1.656721e+626 symmetric permutations.
Reduced MIP has 608855 rows, 488566 columns, and 2191878 nonzeros.
Reduced MIP has 487578 binaries, 988 generals, 0 SOSs, and 0 indicators.
Presolve time = 81.90 sec. (55246.77 ticks)
Probing time = 0.22 sec. (136.58 ticks)
Clique table members: 12448.
MIP emphasis: balance optimality and feasibility.
MIP search method: dynamic search.
Parallel mode: deterministic, using up to 8 threads.
Root relaxation solution time = 83.04 sec. (510825.41 ticks)

        Nodes                                         Cuts/
   Node  Left     Objective  IInf  Best Integer    Best Bound    ItCnt     Gap

*     0+    0                            0.0000    80000.0000              --- 
*     0+    0                         8464.0000    80000.0000           845.18%
      0     0    80000.0000 144555     8464.0000    80000.0000        4  845.18%
*     0+    0                        16289.0000    80000.0000           391.13%
      0     0    80000.0000 52012    16289.0000   Cuts: 10000    18928  391.13%
      0     0    80000.0000 51907    16289.0000    Cuts: 1598    25079  391.13%
      0     0    80000.0000 49727    16289.0000     Cuts: 257    26952  391.13%
*     0+    0                        19742.0000    80000.0000           305.23%
      0     0        cutoff          19742.0000    80000.0000    26952  305.23%
      0     0    80000.0000 49306    19742.0000     Cuts: 145    27765  305.23%
      0     0    80000.0000 49209    19742.0000      Cuts: 72    28538  305.23%
      0     0    80000.0000 49005    19742.0000      Cuts: 79    29592  305.23%
*     0+    0                        19841.0000    80000.0000           303.21%
      0     0        cutoff          19841.0000    80000.0000    29592  303.21%
      0     0    80000.0000 48663    19841.0000     Cuts: 106    30164  303.21%
      0     0    80000.0000 48367    19841.0000      Cuts: 43    30892  303.21%
      0     0    80000.0000 48238    19841.0000      Cuts: 49    32259  303.21%
      0     0    80000.0000 47966    19841.0000      Cuts: 81    32948  303.21%
      0     0    80000.0000 47862    19841.0000      Cuts: 29    33578  303.21%
      0     0    80000.0000 47854    19841.0000      Cuts: 30    33752  303.21%
*     0+    0                        20282.0000    80000.0000           294.44%
      0     0        cutoff          20282.0000    80000.0000    33752  294.44%
      0     0    80000.0000 11653    20282.0000      Cuts: 61    36693  294.44%
      0     0    80000.0000 11802    20282.0000    Cuts: 1139    39635  294.44%
Heuristic still looking.
Heuristic still looking.
      0     2    80000.0000  5601    20282.0000    80000.0000    39635  294.44%
Elapsed time = 1183.95 sec. (2117909.41 ticks, tree = 0.02 MB, solutions = 6)
      1     3    80000.0000  5617    20282.0000    80000.0000    39809  294.44%
      2     4    80000.0000  5622    20282.0000    80000.0000    41220  294.44%
      3     5    80000.0000  8406    20282.0000    80000.0000    56923  294.44%
      4     6    80000.0000  8109    20282.0000    80000.0000    59234  294.44%
      5     7    80000.0000  8195    20282.0000    80000.0000    59714  294.44%
      6     8    80000.0000  8189    20282.0000    80000.0000    59723  294.44%
      7     3    80000.0000  5671    20282.0000    80000.0000    42199  294.44%
      8     9    80000.0000  8240    20282.0000    80000.0000    63567  294.44%
      9    10    80000.0000  5214    20282.0000    80000.0000    64127  294.44%
     11    12    80000.0000  5164    20282.0000    80000.0000    68489  294.44%
Elapsed time = 1319.96 sec. (2202721.27 ticks, tree = 0.40 MB, solutions = 6)
     12     6    80000.0000  8324    20282.0000    80000.0000    57295  294.44%
     13    14    80000.0000  8172    20282.0000    80000.0000    69221  294.44%
     14    15    80000.0000  8171    20282.0000    80000.0000    69297  294.44%
     15    16    80000.0000  8967    20282.0000    80000.0000    70575  294.44%
     17    13    80000.0000  8047    20282.0000    80000.0000    74674  294.44%
     18    15    80000.0000  8063    20282.0000    80000.0000    75108  294.44%
     20    17    80000.0000  8063    20282.0000    80000.0000    75825  294.44%
     23    19    80000.0000  8061    20282.0000    80000.0000    76115  294.44%
     26    18    80000.0000  5141    20282.0000    80000.0000    83498  294.44%
     29    23    80000.0000  7999    20282.0000    80000.0000    76385  294.44%
Elapsed time = 1388.57 sec. (2233409.91 ticks, tree = 2.32 MB, solutions = 6)
     30    19    80000.0000  5321    20282.0000    80000.0000    85821  294.44%
     32    24    80000.0000  8204    20282.0000    80000.0000    77172  294.44%
     33    21    80000.0000  5147    20282.0000    80000.0000    85838  294.44%
     35    23    80000.0000  5143    20282.0000    80000.0000    85851  294.44%
     37    25    80000.0000  5837    20282.0000    80000.0000    87982  294.44%
     38    26    80000.0000  6303    20282.0000    80000.0000    90262  294.44%
     39    18    80000.0000  8095    20282.0000    80000.0000    80340  294.44%
     40    32    80000.0000  7858    20282.0000    80000.0000   103897  294.44%
     41    25    80000.0000  8045    20282.0000    80000.0000    77221  294.44%
     42    43    80000.0000  7618    20282.0000    80000.0000   104947  294.44%
Elapsed time = 1477.79 sec. (2277486.15 ticks, tree = 13.61 MB, solutions = 7)
     44    45    80000.0000  7614    20282.0000    80000.0000   105003  294.44%
     46    47    80000.0000  7590    20282.0000    80000.0000   105078  294.44%
     48    49    80000.0000  7592    20282.0000    80000.0000   105262  294.44%
*    51+    7                        36460.0000    80000.0000           119.42%
     51     9    80000.0000  8189    36460.0000    80000.0000    59726  119.42%
     53     7    80000.0000  8109    36460.0000    80000.0000    59236  119.42%
     55    44    80000.0000  8361    36460.0000    80000.0000   107550  119.42%
     57    48    80000.0000  8001    36460.0000    80000.0000   122457  119.42%
     60    50    80000.0000  8017    36460.0000    80000.0000   122483  119.42%
     62    51    80000.0000  7858    36460.0000    80000.0000   132492  119.42%
     63    52    80000.0000  8105    36460.0000    80000.0000   122783  119.42%
Elapsed time = 1520.36 sec. (2304221.70 ticks, tree = 16.81 MB, solutions = 7)
     65    53    80000.0000  7999    36460.0000    80000.0000   122788  119.42%
     67    47    80000.0000  6090    36460.0000    80000.0000   121499  119.42%
     69    45    80000.0000  8597    36460.0000    80000.0000   113014  119.42%
     72    49    80000.0000  6088    36460.0000    80000.0000   121613  119.42%
     75    50    80000.0000  6080    36460.0000    80000.0000   121733  119.42%
     79    51    80000.0000  6129    36460.0000    80000.0000   121930  119.42%
     84    57    80000.0000  7974    36460.0000    80000.0000   123701  119.42%
     87    52    80000.0000  8282    36460.0000    80000.0000   142454  119.42%
     90    57    80000.0000  7819    36460.0000    80000.0000   133891  119.42%
     93    58    80000.0000  7770    36460.0000    80000.0000   133893  119.42%
Elapsed time = 1537.22 sec. (2316534.23 ticks, tree = 47.36 MB, solutions = 7)
     95    55    80000.0000  8079    36460.0000    80000.0000   142877  119.42%
     97    56    80000.0000  8103    36460.0000    80000.0000   142903  119.42%
    102    64    80000.0000  7940    36460.0000    80000.0000   144926  119.42%
    104    75    80000.0000  7768    36460.0000    80000.0000   146083  119.42%
    107    76    80000.0000  7731    36460.0000    80000.0000   146118  119.42%
    111    67    80000.0000  7910    36460.0000    80000.0000   145414  119.42%
    113    60    80000.0000  8087    36460.0000    80000.0000   140182  119.42%
    116    80    80000.0000  7695    36460.0000    80000.0000   146568  119.42%
    119    61    80000.0000  7882    36460.0000    80000.0000   140608  119.42%
    120    52    80000.0000  6074    36460.0000    80000.0000   121936  119.42%
Elapsed time = 1560.36 sec. (2330883.85 ticks, tree = 29.61 MB, solutions = 7)
    124    52    80000.0000  7583    36460.0000    80000.0000   105326  119.42%
    125    89    80000.0000  6714    36460.0000    80000.0000   154984  119.42%
    127    90    80000.0000  6071    36460.0000    80000.0000   154990  119.42%
    128    91    80000.0000  6093    36460.0000    80000.0000   155175  119.42%
    130   109    80000.0000  7989    36460.0000    80000.0000   157796  119.42%
    132    93    80000.0000  6088    36460.0000    80000.0000   155381  119.42%
    137    95    80000.0000  6059    36460.0000    80000.0000   155411  119.42%
    141    84    80000.0000  6768    36460.0000    80000.0000   152666  119.42%
    146   114    80000.0000  7564    36460.0000    80000.0000   158303  119.42%
    148   120    80000.0000  7575    36460.0000    80000.0000   158242  119.42%
Elapsed time = 1600.84 sec. (2351753.97 ticks, tree = 169.24 MB, solutions = 7)
    151   100    80000.0000  6046    36460.0000    80000.0000   155758  119.42%
    154   138    80000.0000  6070    36460.0000    80000.0000   162478  119.42%
    161   124    80000.0000  7569    36460.0000    80000.0000   158413  119.42%
    163   149    80000.0000  7806    36460.0000    80000.0000   166064  119.42%
    169   151    80000.0000  6790    36460.0000    80000.0000   171110  119.42%
    173   142    80000.0000  6252    36460.0000    80000.0000   162945  119.42%
    177   153    80000.0000  6761    36460.0000    80000.0000   171170  119.42%
    182   154    80000.0000  7528    36460.0000    80000.0000   166314  119.42%
    186   154    80000.0000  7587    36460.0000    80000.0000   178735  119.42%
    192   164    80000.0000  7555    36460.0000    80000.0000   180888  119.42%
Elapsed time = 1616.93 sec. (2363909.60 ticks, tree = 261.66 MB, solutions = 7)
    200   158    80000.0000  6757    36460.0000    80000.0000   171445  119.42%
    204   159    80000.0000  6751    36460.0000    80000.0000   171450  119.42%
    206   150    80000.0000  6049    36460.0000    80000.0000   163443  119.42%
    211   164    80000.0000  7253    36460.0000    80000.0000   185843  119.42%
    214   167    80000.0000  7655    36460.0000    80000.0000   181534  119.42%
    221   191    80000.0000  7384    36460.0000    80000.0000   187860  119.42%
    224   198    80000.0000  7579    36460.0000    80000.0000   189293  119.42%
    229   199    80000.0000  7556    36460.0000    80000.0000   189295  119.42%
    234   169    80000.0000  7661    36460.0000    80000.0000   182058  119.42%
    237   195    80000.0000  7394    36460.0000    80000.0000   188029  119.42%
Elapsed time = 1626.98 sec. (2374665.26 ticks, tree = 342.01 MB, solutions = 7)
    241   170    80000.0000  7535    36460.0000    80000.0000   182061  119.42%
    245   186    80000.0000  6008    36460.0000    80000.0000   186988  119.42%
    249   188    80000.0000  5935    36460.0000    80000.0000   187039  119.42%
    251   169    80000.0000  7538    36460.0000    80000.0000   189040  119.42%
    254   190    80000.0000  5935    36460.0000    80000.0000   187050  119.42%
    257   191    80000.0000  5930    36460.0000    80000.0000   187052  119.42%
    258   197    80000.0000  7644    36460.0000    80000.0000   189126  119.42%
    265     4    80000.0000  5857    36460.0000    80000.0000    43601  119.42%
    270   206    80000.0000  7454    36460.0000    80000.0000   190486  119.42%
    294   209    80000.0000  7144    36460.0000    80000.0000   190960  119.42%
Elapsed time = 1645.95 sec. (2388712.62 ticks, tree = 390.52 MB, solutions = 7)
    311   227    80000.0000  5739    36460.0000    80000.0000   200051  119.42%
    329   251    80000.0000  7528    36460.0000    80000.0000   205660  119.42%
    350   279    80000.0000  6754    36460.0000    80000.0000   209148  119.42%
    367   234    80000.0000  5637    36460.0000    80000.0000   201368  119.42%
    384   329    80000.0000  7170    36460.0000    80000.0000   216738  119.42%
    404   314    80000.0000  7559    36460.0000    80000.0000   212220  119.42%
    417   325    80000.0000  5568    36460.0000    80000.0000   214683  119.42%
Starting limited solution polishing.
    435   318    80000.0000  8873    36460.0000    80000.0000   214722  119.42%
    451   365    80000.0000  6926    36460.0000    80000.0000   222240  119.42%
    462   342    80000.0000  7217    36460.0000    80000.0000   218434  119.42%
Elapsed time = 1692.16 sec. (2429626.08 ticks, tree = 800.68 MB, solutions = 7)
    465   370    80000.0000  6546    36460.0000    80000.0000   222959  119.42%
    470   373    80000.0000  6578    36460.0000    80000.0000   223244  119.42%
    475   407    80000.0000  7519    36460.0000    80000.0000   231961  119.42%
    480   412    80000.0000  7480    36460.0000    80000.0000   232085  119.42%
    483   414    80000.0000  7644    36460.0000    80000.0000   232874  119.42%
    489   436    80000.0000  6559    36460.0000    80000.0000   237523  119.42%
    496   424    80000.0000  5454    36460.0000    80000.0000   236244  119.42%
    504   454    80000.0000  7237    36460.0000    80000.0000   239710  119.42%
    511   457    80000.0000  7233    36460.0000    80000.0000   240110  119.42%
    517   459    80000.0000  7524    36460.0000    80000.0000   241126  119.42%
Elapsed time = 1738.20 sec. (2474236.23 ticks, tree = 1208.09 MB, solutions = 7)
    524   470    80000.0000  7817    36460.0000    80000.0000   244266  119.42%
    527   503    80000.0000  7563    36460.0000    80000.0000   263537  119.42%
    530   505    80000.0000  6494    36460.0000    80000.0000   264843  119.42%
    536   483    80000.0000  5836    36460.0000    80000.0000   259487  119.42%
    538   477    80000.0000  7576    36460.0000    80000.0000   261973  119.42%
    545   517    80000.0000  5852    36460.0000    80000.0000   281254  119.42%
    551   517    80000.0000  6808    36460.0000    80000.0000   274214  119.42%
    561   521    80000.0000  7244    36460.0000    80000.0000   287621  119.42%
    569   525    80000.0000  7240    36460.0000    80000.0000   287936  119.42%
    574   524    80000.0000  6726    36460.0000    80000.0000   275126  119.42%
Elapsed time = 1787.83 sec. (2514952.92 ticks, tree = 1446.33 MB, solutions = 7)
    582   523    80000.0000  5859    36460.0000    80000.0000   283799  119.42%
    592   524    80000.0000  5883    36460.0000    80000.0000   284316  119.42%
    605   534    80000.0000  5384    36460.0000    80000.0000   297102  119.42%
    614   526    80000.0000  5930    36460.0000    80000.0000   286139  119.42%
    615   498    80000.0000  7350    36460.0000    80000.0000   259189  119.42%

Clique cuts applied:  544
Implied bound cuts applied:  293
Flow cuts applied:  1176
Mixed integer rounding cuts applied:  1199
Zero-half cuts applied:  36
Gomory fractional cuts applied:  4

Root node processing (before b&c):
  Real time             = 1179.98 sec. (2105624.46 ticks)
Parallel b&c, 8 threads:
  Real time             =  621.12 sec. (439039.73 ticks)
  Sync time (average)   =  164.05 sec.
  Wait time (average)   =    0.00 sec.
                          ------------
Total (root+branch&cut) = 1801.10 sec. (2544664.19 ticks)

<<< solve


OBJECTIVE: 36460

<<< post process


<<< done

